examples/dynamic/debug6/standard_two_index_05.i_3_2_2.bpl_5.smt2
(set-info :smt-lib-version 2.6)
(set-logic QF_NRA)
(set-info :source |
Generated by a component of the Ultimate program analysis framework [1] 
that implements a constraint-based synthesis of invariants [2].

This SMT script belongs to a set of SMT scripts that was generated by 
applying Ultimate to benchmarks [3] from the SV-COMP 2017 [4,5].

This script might _not_ contain all SMT commands that are used by 
Ultimate . In order to satisfy the restrictions of
the SMT-COMP we have to drop e.g., the commands for getting
values (resp. models), unsatisfiable cores and interpolants.

2017-05-01, Matthias Heizmann (heizmann@informatik.uni-freiburg.de)


[1] https://ultimate.informatik.uni-freiburg.de/
[2] Michael Colon, Sriram Sankaranarayanan, Henny Sipma: Linear Invariant 
Generation Using Non-linear Constraint Solving. CAV 2003: 420-432
[3] https://github.com/sosy-lab/sv-benchmarks
[4] Dirk Beyer: Software Verification with Validation of Results - 
(Report on SV-COMP 2017). TACAS (2) 2017: 331-349
[5] https://sv-comp.sosy-lab.org/2017/
|)
(set-info :license "https://creativecommons.org/licenses/by/4.0/")
(set-info :category "industrial")
(set-info :status unknown)
(declare-fun lp_0_0c () Real)
(declare-fun lp_0_0_ULTIMATE.start_main_~j~4 () Real)
(declare-fun lp_0_0_ULTIMATE.start_main_~i~4 () Real)
(declare-fun lp_0_1c () Real)
(declare-fun lp_0_1_ULTIMATE.start_main_~j~4 () Real)
(declare-fun lp_0_1_ULTIMATE.start_main_~i~4 () Real)
(declare-fun lp_0_2c () Real)
(declare-fun lp_0_2_ULTIMATE.start_main_~j~4 () Real)
(declare-fun lp_0_2_ULTIMATE.start_main_~i~4 () Real)
(declare-fun motzkin_2140_0 () Real)
(declare-fun motzkin_2140_1 () Real)
(declare-fun motzkin_2140_2 () Real)
(declare-fun motzkin_2140_3 () Real)
(declare-fun motzkin_2140_4 () Real)
(declare-fun motzkin_2141_0 () Real)
(declare-fun motzkin_2141_1 () Real)
(declare-fun motzkin_2141_2 () Real)
(declare-fun motzkin_2141_3 () Real)
(declare-fun motzkin_2141_4 () Real)
(declare-fun motzkin_2142_0 () Real)
(declare-fun motzkin_2142_1 () Real)
(declare-fun motzkin_2142_2 () Real)
(declare-fun motzkin_2142_3 () Real)
(declare-fun motzkin_2142_4 () Real)
(assert (and (>= motzkin_2140_0 0.0) (>= motzkin_2140_1 0.0) (>= motzkin_2140_2 0.0) (>= motzkin_2140_3 0.0) (>= motzkin_2140_4 0.0) (= (+ (* motzkin_2140_0 (- 1.0)) motzkin_2140_1 (* motzkin_2140_4 (+ (* (- 1.0) lp_0_0_ULTIMATE.start_main_~j~4) 0.0))) 0.0) (= (+ (* motzkin_2140_2 (- 1.0)) motzkin_2140_3 (* motzkin_2140_4 (+ (* (- 1.0) lp_0_0_ULTIMATE.start_main_~i~4) 0.0))) 0.0) (<= (+ motzkin_2140_2 (* motzkin_2140_3 (- 1.0)) (* motzkin_2140_4 (+ (* (- 1.0) lp_0_0c) 0.0))) 0.0) (or (< (+ motzkin_2140_2 (* motzkin_2140_3 (- 1.0))) 0.0) (> motzkin_2140_4 0.0)) (>= motzkin_2141_0 0.0) (>= motzkin_2141_1 0.0) (>= motzkin_2141_2 0.0) (>= motzkin_2141_3 0.0) (>= motzkin_2141_4 0.0) (= (+ (* motzkin_2141_0 (- 1.0)) motzkin_2141_1 (* motzkin_2141_4 (+ (* (- 1.0) lp_0_1_ULTIMATE.start_main_~j~4) 0.0))) 0.0) (= (+ (* motzkin_2141_2 (- 1.0)) motzkin_2141_3 (* motzkin_2141_4 (+ (* (- 1.0) lp_0_1_ULTIMATE.start_main_~i~4) 0.0))) 0.0) (<= (+ motzkin_2141_2 (* motzkin_2141_3 (- 1.0)) (* motzkin_2141_4 (+ (* (- 1.0) lp_0_1c) 0.0))) 0.0) (or (< (+ motzkin_2141_2 (* motzkin_2141_3 (- 1.0))) 0.0) (> motzkin_2141_4 0.0)) (>= motzkin_2142_0 0.0) (>= motzkin_2142_1 0.0) (>= motzkin_2142_2 0.0) (>= motzkin_2142_3 0.0) (>= motzkin_2142_4 0.0) (= (+ (* motzkin_2142_0 (- 1.0)) motzkin_2142_1 (* motzkin_2142_4 (+ (* (- 1.0) lp_0_2_ULTIMATE.start_main_~j~4) 0.0))) 0.0) (= (+ (* motzkin_2142_2 (- 1.0)) motzkin_2142_3 (* motzkin_2142_4 (+ (* (- 1.0) lp_0_2_ULTIMATE.start_main_~i~4) 0.0))) 0.0) (<= (+ motzkin_2142_2 (* motzkin_2142_3 (- 1.0)) (* motzkin_2142_4 (+ (* (- 1.0) lp_0_2c) 0.0))) 0.0) (or (< (+ motzkin_2142_2 (* motzkin_2142_3 (- 1.0))) 0.0) (> motzkin_2142_4 0.0))))
(declare-fun motzkin_2143_0 () Real)
(declare-fun motzkin_2143_1 () Real)
(declare-fun motzkin_2143_2 () Real)
(declare-fun motzkin_2143_3 () Real)
(declare-fun motzkin_2143_4 () Real)
(declare-fun motzkin_2143_5 () Real)
(declare-fun motzkin_2143_6 () Real)
(declare-fun motzkin_2143_7 () Real)
(declare-fun motzkin_2143_8 () Real)
(declare-fun motzkin_2144_0 () Real)
(declare-fun motzkin_2144_1 () Real)
(declare-fun motzkin_2144_2 () Real)
(declare-fun motzkin_2144_3 () Real)
(declare-fun motzkin_2144_4 () Real)
(declare-fun motzkin_2144_5 () Real)
(declare-fun motzkin_2144_6 () Real)
(declare-fun motzkin_2144_7 () Real)
(declare-fun motzkin_2144_8 () Real)
(declare-fun motzkin_2145_0 () Real)
(declare-fun motzkin_2145_1 () Real)
(declare-fun motzkin_2145_2 () Real)
(declare-fun motzkin_2145_3 () Real)
(declare-fun motzkin_2145_4 () Real)
(declare-fun motzkin_2145_5 () Real)
(declare-fun motzkin_2145_6 () Real)
(declare-fun motzkin_2145_7 () Real)
(declare-fun motzkin_2145_8 () Real)
(assert (and (>= motzkin_2143_0 0.0) (>= motzkin_2143_1 0.0) (>= motzkin_2143_2 0.0) (>= motzkin_2143_3 0.0) (>= motzkin_2143_4 0.0) (>= motzkin_2143_5 0.0) (>= motzkin_2143_6 0.0) (>= motzkin_2143_7 0.0) (>= motzkin_2143_8 0.0) (= (+ (* motzkin_2143_0 (- 1.0)) motzkin_2143_1 (* motzkin_2143_5 (+ (* (- 1.0) lp_0_0_ULTIMATE.start_main_~i~4) 0.0))) 0.0) (= (+ motzkin_2143_0 (* motzkin_2143_1 (- 1.0)) (* motzkin_2143_2 (- 1.0)) (* motzkin_2143_6 (+ (* 1.0 lp_0_0_ULTIMATE.start_main_~i~4) 0.0)) (* motzkin_2143_7 (+ (* 1.0 lp_0_1_ULTIMATE.start_main_~i~4) 0.0)) (* motzkin_2143_8 (+ (* 1.0 lp_0_2_ULTIMATE.start_main_~i~4) 0.0))) 0.0) (= (+ motzkin_2143_3 (* motzkin_2143_4 (- 1.0)) (* motzkin_2143_5 (+ (* (- 1.0) lp_0_0_ULTIMATE.start_main_~j~4) 0.0))) 0.0) (= (+ (* motzkin_2143_3 (- 1.0)) motzkin_2143_4 (* motzkin_2143_6 (+ (* 1.0 lp_0_0_ULTIMATE.start_main_~j~4) 0.0)) (* motzkin_2143_7 (+ (* 1.0 lp_0_1_ULTIMATE.start_main_~j~4) 0.0)) (* motzkin_2143_8 (+ (* 1.0 lp_0_2_ULTIMATE.start_main_~j~4) 0.0))) 0.0) (<= (+ (* motzkin_2143_0 5.0) (* motzkin_2143_1 (- 5.0)) (* motzkin_2143_2 99999.0) (* motzkin_2143_3 (- 1.0)) motzkin_2143_4 (* motzkin_2143_5 (+ (* (- 1.0) lp_0_0c) 0.0)) (* motzkin_2143_6 (+ (* 1.0 lp_0_0c) 0.0)) (* motzkin_2143_7 (+ (* 1.0 lp_0_1c) 0.0)) (* motzkin_2143_8 (+ (* 1.0 lp_0_2c) 0.0))) 0.0) (or (< (+ (* motzkin_2143_0 5.0) (* motzkin_2143_1 (- 5.0)) (* motzkin_2143_2 99999.0) (* motzkin_2143_3 (- 1.0)) motzkin_2143_4 (* motzkin_2143_6 (+ (* 1.0 lp_0_0c) 0.0)) (* motzkin_2143_7 (+ (* 1.0 lp_0_1c) 0.0)) (* motzkin_2143_8 (+ (* 1.0 lp_0_2c) 0.0))) 0.0) (> motzkin_2143_5 0.0)) (>= motzkin_2144_0 0.0) (>= motzkin_2144_1 0.0) (>= motzkin_2144_2 0.0) (>= motzkin_2144_3 0.0) (>= motzkin_2144_4 0.0) (>= motzkin_2144_5 0.0) (>= motzkin_2144_6 0.0) (>= motzkin_2144_7 0.0) (>= motzkin_2144_8 0.0) (= (+ (* motzkin_2144_0 (- 1.0)) motzkin_2144_1 (* motzkin_2144_5 (+ (* (- 1.0) lp_0_1_ULTIMATE.start_main_~i~4) 0.0))) 0.0) (= (+ motzkin_2144_0 (* motzkin_2144_1 (- 1.0)) (* motzkin_2144_2 (- 1.0)) (* motzkin_2144_6 (+ (* 1.0 lp_0_0_ULTIMATE.start_main_~i~4) 0.0)) (* motzkin_2144_7 (+ (* 1.0 lp_0_1_ULTIMATE.start_main_~i~4) 0.0)) (* motzkin_2144_8 (+ (* 1.0 lp_0_2_ULTIMATE.start_main_~i~4) 0.0))) 0.0) (= (+ motzkin_2144_3 (* motzkin_2144_4 (- 1.0)) (* motzkin_2144_5 (+ (* (- 1.0) lp_0_1_ULTIMATE.start_main_~j~4) 0.0))) 0.0) (= (+ (* motzkin_2144_3 (- 1.0)) motzkin_2144_4 (* motzkin_2144_6 (+ (* 1.0 lp_0_0_ULTIMATE.start_main_~j~4) 0.0)) (* motzkin_2144_7 (+ (* 1.0 lp_0_1_ULTIMATE.start_main_~j~4) 0.0)) (* motzkin_2144_8 (+ (* 1.0 lp_0_2_ULTIMATE.start_main_~j~4) 0.0))) 0.0) (<= (+ (* motzkin_2144_0 5.0) (* motzkin_2144_1 (- 5.0)) (* motzkin_2144_2 99999.0) (* motzkin_2144_3 (- 1.0)) motzkin_2144_4 (* motzkin_2144_5 (+ (* (- 1.0) lp_0_1c) 0.0)) (* motzkin_2144_6 (+ (* 1.0 lp_0_0c) 0.0)) (* motzkin_2144_7 (+ (* 1.0 lp_0_1c) 0.0)) (* motzkin_2144_8 (+ (* 1.0 lp_0_2c) 0.0))) 0.0) (or (< (+ (* motzkin_2144_0 5.0) (* motzkin_2144_1 (- 5.0)) (* motzkin_2144_2 99999.0) (* motzkin_2144_3 (- 1.0)) motzkin_2144_4 (* motzkin_2144_6 (+ (* 1.0 lp_0_0c) 0.0)) (* motzkin_2144_7 (+ (* 1.0 lp_0_1c) 0.0)) (* motzkin_2144_8 (+ (* 1.0 lp_0_2c) 0.0))) 0.0) (> motzkin_2144_5 0.0)) (>= motzkin_2145_0 0.0) (>= motzkin_2145_1 0.0) (>= motzkin_2145_2 0.0) (>= motzkin_2145_3 0.0) (>= motzkin_2145_4 0.0) (>= motzkin_2145_5 0.0) (>= motzkin_2145_6 0.0) (>= motzkin_2145_7 0.0) (>= motzkin_2145_8 0.0) (= (+ (* motzkin_2145_0 (- 1.0)) motzkin_2145_1 (* motzkin_2145_5 (+ (* (- 1.0) lp_0_2_ULTIMATE.start_main_~i~4) 0.0))) 0.0) (= (+ motzkin_2145_0 (* motzkin_2145_1 (- 1.0)) (* motzkin_2145_2 (- 1.0)) (* motzkin_2145_6 (+ (* 1.0 lp_0_0_ULTIMATE.start_main_~i~4) 0.0)) (* motzkin_2145_7 (+ (* 1.0 lp_0_1_ULTIMATE.start_main_~i~4) 0.0)) (* motzkin_2145_8 (+ (* 1.0 lp_0_2_ULTIMATE.start_main_~i~4) 0.0))) 0.0) (= (+ motzkin_2145_3 (* motzkin_2145_4 (- 1.0)) (* motzkin_2145_5 (+ (* (- 1.0) lp_0_2_ULTIMATE.start_main_~j~4) 0.0))) 0.0) (= (+ (* motzkin_2145_3 (- 1.0)) motzkin_2145_4 (* motzkin_2145_6 (+ (* 1.0 lp_0_0_ULTIMATE.start_main_~j~4) 0.0)) (* motzkin_2145_7 (+ (* 1.0 lp_0_1_ULTIMATE.start_main_~j~4) 0.0)) (* motzkin_2145_8 (+ (* 1.0 lp_0_2_ULTIMATE.start_main_~j~4) 0.0))) 0.0) (<= (+ (* motzkin_2145_0 5.0) (* motzkin_2145_1 (- 5.0)) (* motzkin_2145_2 99999.0) (* motzkin_2145_3 (- 1.0)) motzkin_2145_4 (* motzkin_2145_5 (+ (* (- 1.0) lp_0_2c) 0.0)) (* motzkin_2145_6 (+ (* 1.0 lp_0_0c) 0.0)) (* motzkin_2145_7 (+ (* 1.0 lp_0_1c) 0.0)) (* motzkin_2145_8 (+ (* 1.0 lp_0_2c) 0.0))) 0.0) (or (< (+ (* motzkin_2145_0 5.0) (* motzkin_2145_1 (- 5.0)) (* motzkin_2145_2 99999.0) (* motzkin_2145_3 (- 1.0)) motzkin_2145_4 (* motzkin_2145_6 (+ (* 1.0 lp_0_0c) 0.0)) (* motzkin_2145_7 (+ (* 1.0 lp_0_1c) 0.0)) (* motzkin_2145_8 (+ (* 1.0 lp_0_2c) 0.0))) 0.0) (> motzkin_2145_5 0.0))))
(declare-fun motzkin_2146_0 () Real)
(declare-fun motzkin_2146_1 () Real)
(declare-fun motzkin_2146_2 () Real)
(declare-fun motzkin_2146_3 () Real)
(declare-fun motzkin_2146_4 () Real)
(declare-fun motzkin_2146_5 () Real)
(declare-fun motzkin_2146_6 () Real)
(declare-fun motzkin_2146_7 () Real)
(declare-fun motzkin_2146_8 () Real)
(declare-fun motzkin_2146_9 () Real)
(declare-fun motzkin_2146_10 () Real)
(declare-fun motzkin_2146_11 () Real)
(declare-fun motzkin_2146_12 () Real)
(declare-fun motzkin_2147_0 () Real)
(declare-fun motzkin_2147_1 () Real)
(declare-fun motzkin_2147_2 () Real)
(declare-fun motzkin_2147_3 () Real)
(declare-fun motzkin_2147_4 () Real)
(declare-fun motzkin_2147_5 () Real)
(declare-fun motzkin_2147_6 () Real)
(declare-fun motzkin_2147_7 () Real)
(declare-fun motzkin_2147_8 () Real)
(declare-fun motzkin_2147_9 () Real)
(declare-fun motzkin_2147_10 () Real)
(declare-fun motzkin_2147_11 () Real)
(declare-fun motzkin_2147_12 () Real)
(assert (and (>= motzkin_2146_0 0.0) (>= motzkin_2146_1 0.0) (>= motzkin_2146_2 0.0) (>= motzkin_2146_3 0.0) (>= motzkin_2146_4 0.0) (>= motzkin_2146_5 0.0) (>= motzkin_2146_6 0.0) (>= motzkin_2146_7 0.0) (>= motzkin_2146_8 0.0) (>= motzkin_2146_9 0.0) (>= motzkin_2146_10 0.0) (>= motzkin_2146_11 0.0) (>= motzkin_2146_12 0.0) (= (+ motzkin_2146_0 (* motzkin_2146_2 (- 1.0)) motzkin_2146_3 (* motzkin_2146_6 (- 1.0))) 0.0) (= (+ (* motzkin_2146_0 (- 1.0)) motzkin_2146_6) 0.0) (= (+ motzkin_2146_1 (* motzkin_2146_10 (+ (* 1.0 lp_0_0_ULTIMATE.start_main_~i~4) 0.0)) (* motzkin_2146_11 (+ (* 1.0 lp_0_1_ULTIMATE.start_main_~i~4) 0.0)) (* motzkin_2146_12 (+ (* 1.0 lp_0_2_ULTIMATE.start_main_~i~4) 0.0))) 0.0) (= (* motzkin_2146_4 (- 1.0)) 0.0) (= motzkin_2146_4 0.0) (= (+ (* motzkin_2146_5 (- 1.0)) motzkin_2146_7) 0.0) (= (+ (* motzkin_2146_8 (- 1.0)) motzkin_2146_9) 0.0) (= (+ (* motzkin_2146_10 (+ (* 1.0 lp_0_0_ULTIMATE.start_main_~j~4) 0.0)) (* motzkin_2146_11 (+ (* 1.0 lp_0_1_ULTIMATE.start_main_~j~4) 0.0)) (* motzkin_2146_12 (+ (* 1.0 lp_0_2_ULTIMATE.start_main_~j~4) 0.0))) 0.0) (<= (+ (* motzkin_2146_1 (- 100000.0)) (* motzkin_2146_4 (- 1.0)) motzkin_2146_5 (* motzkin_2146_7 (- 1.0)) (* motzkin_2146_10 (+ (* 1.0 lp_0_0c) 0.0)) (* motzkin_2146_11 (+ (* 1.0 lp_0_1c) 0.0)) (* motzkin_2146_12 (+ (* 1.0 lp_0_2c) 0.0))) 0.0) (or (< (+ (* motzkin_2146_1 (- 100000.0)) (* motzkin_2146_4 (- 1.0)) motzkin_2146_5 (* motzkin_2146_7 (- 1.0)) (* motzkin_2146_10 (+ (* 1.0 lp_0_0c) 0.0)) (* motzkin_2146_11 (+ (* 1.0 lp_0_1c) 0.0)) (* motzkin_2146_12 (+ (* 1.0 lp_0_2c) 0.0))) 0.0) (> 0.0 0.0)) (>= motzkin_2147_0 0.0) (>= motzkin_2147_1 0.0) (>= motzkin_2147_2 0.0) (>= motzkin_2147_3 0.0) (>= motzkin_2147_4 0.0) (>= motzkin_2147_5 0.0) (>= motzkin_2147_6 0.0) (>= motzkin_2147_7 0.0) (>= motzkin_2147_8 0.0) (>= motzkin_2147_9 0.0) (>= motzkin_2147_10 0.0) (>= motzkin_2147_11 0.0) (>= motzkin_2147_12 0.0) (= (+ motzkin_2147_0 (* motzkin_2147_2 (- 1.0)) motzkin_2147_3 (* motzkin_2147_6 (- 1.0))) 0.0) (= (+ (* motzkin_2147_0 (- 1.0)) motzkin_2147_6) 0.0) (= (+ motzkin_2147_1 (* motzkin_2147_10 (+ (* 1.0 lp_0_0_ULTIMATE.start_main_~i~4) 0.0)) (* motzkin_2147_11 (+ (* 1.0 lp_0_1_ULTIMATE.start_main_~i~4) 0.0)) (* motzkin_2147_12 (+ (* 1.0 lp_0_2_ULTIMATE.start_main_~i~4) 0.0))) 0.0) (= motzkin_2147_4 0.0) (= (* motzkin_2147_4 (- 1.0)) 0.0) (= (+ (* motzkin_2147_5 (- 1.0)) motzkin_2147_7) 0.0) (= (+ (* motzkin_2147_8 (- 1.0)) motzkin_2147_9) 0.0) (= (+ (* motzkin_2147_10 (+ (* 1.0 lp_0_0_ULTIMATE.start_main_~j~4) 0.0)) (* motzkin_2147_11 (+ (* 1.0 lp_0_1_ULTIMATE.start_main_~j~4) 0.0)) (* motzkin_2147_12 (+ (* 1.0 lp_0_2_ULTIMATE.start_main_~j~4) 0.0))) 0.0) (<= (+ (* motzkin_2147_1 (- 100000.0)) (* motzkin_2147_4 (- 1.0)) motzkin_2147_5 (* motzkin_2147_7 (- 1.0)) (* motzkin_2147_10 (+ (* 1.0 lp_0_0c) 0.0)) (* motzkin_2147_11 (+ (* 1.0 lp_0_1c) 0.0)) (* motzkin_2147_12 (+ (* 1.0 lp_0_2c) 0.0))) 0.0) (or (< (+ (* motzkin_2147_1 (- 100000.0)) (* motzkin_2147_4 (- 1.0)) motzkin_2147_5 (* motzkin_2147_7 (- 1.0)) (* motzkin_2147_10 (+ (* 1.0 lp_0_0c) 0.0)) (* motzkin_2147_11 (+ (* 1.0 lp_0_1c) 0.0)) (* motzkin_2147_12 (+ (* 1.0 lp_0_2c) 0.0))) 0.0) (> 0.0 0.0))))
(check-sat)
(exit)
