z3_origin/standard_two_index_05.i_3_2_2.bpl_5.txt
timeout
(:max-memory   64.47
 :memory       62.88
 :num-allocs   195701386130.00
 :rlimit-count 3889357669
 :time         1199.99
 :total-time   1197.17)
